Pr Gd Sr La Y Co Fe O
1.0
        5.439614000000000000    -0.00000000000000000    -0.00000000000000000
        -0.00000000000000000    -0.00000000000000000    5.453900000000000000
        -0.00000000000000000    38.58179000000000000    -0.00000000000000000
    Pr      Gd      Sr      La      Y       Co      Fe      O       
    4       4       4       4       4       4       16      60      
Cartesian 
    0.118855565900000000    28.93634250000000000    5.429428350700000000
    0.118855565900000000    5.787268500000000000    5.429428350700000000
    2.838662565900000000    13.50362650000000000    2.751421649300000000
    2.600951434100000000    25.07816350000000000    2.702478350700000000
    0.118855565900000000    21.21998450000000000    5.429428350700000000
    2.838662565900000000    28.93634250000000000    2.751421649300000000
    2.600951434100000000    17.36180550000000000    2.702478350700000000
    5.320758434099999000    9.645447500000000000    0.024471649300000000
    0.118855565900000000    13.50362650000000000    5.429428350700000000
    0.118855565900000000    36.65270049999999500    5.429428350700000000
    2.600951434100000000    32.79452150000000000    2.702478350700000000
    2.600951434100000000    9.645447500000000000    2.702478350700000000
    2.838662565900000000    21.21998450000000000    2.751421649300000000
    2.838662565900000000    5.787268500000000000    2.751421649300000000
    2.838662565900000000    36.65270049999999500    2.751421649300000000
    5.320758434099999000    1.929089500000000000    0.024471649300000000
    2.600951434100000000    1.929089500000000000    2.702478350700000000
    5.320758434099999000    32.79452150000000000    0.024471649300000000
    5.320758434099999000    25.07816350000000000    0.024471649300000000
    5.320758434099999000    17.36180550000000000    0.024471649300000000
    2.719807000000000000    30.86543200000000000    5.453900000000000000
    2.719807000000000000    38.58179000000000000    5.453900000000000000
    5.439614000000000000    30.86543200000000000    2.726950000000000000
    5.439614000000000000    38.58179000000000000    2.726950000000000000
    2.719807000000000000    23.14907400000000000    5.453900000000000000
    2.719807000000000000    15.43271600000000000    5.453900000000000000
    2.719807000000000000    7.716358000000000000    5.453900000000000000
    2.719807000000000000    19.29089500000000000    5.453900000000000000
    2.719807000000000000    11.57453700000000000    5.453900000000000000
    2.719807000000000000    3.858179000000000000    5.453900000000000000
    2.719807000000000000    34.72361100000000000    5.453900000000000000
    2.719807000000000000    27.00725300000000000    5.453900000000000000
    5.439614000000000000    23.14907400000000000    2.726950000000000000
    5.439614000000000000    15.43271600000000000    2.726950000000000000
    5.439614000000000000    7.716358000000000000    2.726950000000000000
    5.439614000000000000    19.29089500000000000    2.726950000000000000
    5.439614000000000000    11.57453700000000000    2.726950000000000000
    5.439614000000000000    3.858179000000000000    2.726950000000000000
    5.439614000000000000    34.72361100000000000    2.726950000000000000
    5.439614000000000000    27.00725300000000000    2.726950000000000000
    2.767893187759999500    25.07816350000000000    5.105908456600000000
    2.767893187759999500    17.36180550000000000    5.105908456600000000
    2.767893187759999500    9.645447500000000000    5.105908456600000000
    2.767893187759999500    1.929089500000000000    5.105908456600000000
    2.767893187759999500    32.79452150000000000    5.105908456600000000
    0.048086187760000000    25.07816350000000000    3.074941543400000000
    0.048086187760000000    17.36180550000000000    3.074941543400000000
    0.048086187760000000    9.645447500000000000    3.074941543400000000
    0.048086187760000000    1.929089500000000000    3.074941543400000000
    0.048086187760000000    32.79452150000000000    3.074941543400000000
    5.391527812240000000    28.93634250000000000    2.378958456600000000
    5.391527812240000000    21.21998450000000000    2.378958456600000000
    5.391527812240000000    13.50362650000000000    2.378958456600000000
    5.391527812240000000    5.787268500000000000    2.378958456600000000
    5.391527812240000000    36.65270049999999500    2.378958456600000000
    2.671720812240000000    28.93634250000000000    0.347991543400000000
    2.671720812240000000    21.21998450000000000    0.347991543400000000
    2.671720812240000000    13.50362650000000000    0.347991543400000000
    2.671720812240000000    5.787268500000000000    0.347991543400000000
    2.671720812240000000    36.65270049999999500    0.347991543400000000
    4.230980725726000000    30.60204183602800000    4.240150916699999000
    4.230980725726000000    22.88568383602800000    4.240150916699999000
    4.230980725726000000    15.16932583602799800    4.240150916699999000
    4.230980725726000000    7.452967836028000000    4.240150916699999000
    4.230980725726000000    38.31839983602800000    4.240150916699999000
    4.230980725726000000    19.55428516397199700    4.240150916699999000
    4.230980725726000000    11.83792716397200100    4.240150916699999000
    4.230980725726000000    4.121569163972000000    4.240150916699999000
    4.230980725726000000    34.98700116397199600    4.240150916699999000
    4.230980725726000000    27.27064316397199700    4.240150916699999000
    1.511173725725999800    30.60204183602800000    3.940699083300000000
    1.511173725725999800    22.88568383602800000    3.940699083300000000
    1.511173725725999800    15.16932583602799800    3.940699083300000000
    1.511173725725999800    7.452967836028000000    3.940699083300000000
    1.511173725725999800    38.31839983602800000    3.940699083300000000
    1.511173725725999800    19.55428516397199700    3.940699083300000000
    1.511173725725999800    11.83792716397200100    3.940699083300000000
    1.511173725725999800    4.121569163972000000    3.940699083300000000
    1.511173725725999800    34.98700116397199600    3.940699083300000000
    1.511173725725999800    27.27064316397199700    3.940699083300000000
    3.928440274274000000    34.46022083602800000    1.513200916700000000
    3.928440274274000000    26.74386283602800000    1.513200916700000000
    3.928440274274000000    19.02750483602800000    1.513200916700000000
    3.928440274274000000    11.31114683602799800    1.513200916700000000
    3.928440274274000000    3.594788836028000000    1.513200916700000000
    3.928440274274000000    23.41246416397199700    1.513200916700000000
    3.928440274274000000    15.69610616397199900    1.513200916700000000
    3.928440274274000000    7.979748163972000000    1.513200916700000000
    3.928440274274000000    0.263390163972000000    1.513200916700000000
    3.928440274274000000    31.12882216397199600    1.513200916700000000
    1.208633274274000000    34.46022083602800000    1.213749083300000000
    1.208633274274000000    26.74386283602800000    1.213749083300000000
    1.208633274274000000    19.02750483602800000    1.213749083300000000
    1.208633274274000000    11.31114683602799800    1.213749083300000000
    1.208633274274000000    3.594788836028000000    1.213749083300000000
    1.208633274274000000    23.41246416397199700    1.213749083300000000
    1.208633274274000000    15.69610616397199900    1.213749083300000000
    1.208633274274000000    7.979748163972000000    1.213749083300000000
    1.208633274274000000    0.263390163972000000    1.213749083300000000
    1.208633274274000000    31.12882216397199600    1.213749083300000000
